14	13	9	9	15	14	10	18	14	2	16	10	12	10	19	14	9	3	6	2
18	16	4	12	6	13	8	18	1	16	1	17	10	6	10	11	6	12	20	6
4	20	6	18	12	2	14	10	15	5	5	1	17	7	7	16	11	4	11	1
2	1	7	7	7	3	12	19	1	13	6	9	20	18	7	20	8	20	8	17
3	2	9	9	2	15	8	3	17	2	20	7	4	11	5	1	7	16	13	17
4	7	9	10	7	7	16	9	12	16	6	12	18	14	18	12	4	13	19	19
15	10	7	18	16	7	7	14	7	13	10	4	18	19	19	1	15	11	8	2
6	14	10	9	9	8	10	13	17	19	1	2	2	1	20	19	16	9	9	17
16	4	12	5	3	17	16	14	6	11	1	10	2	2	9	5	8	8	15	15
